74
30
0 31 33 34 35 38 43 44 45 46 48 51 56 59 60 62 63 64 65 66 68
1 36 37 38 41 43 44 45 46 47 51 53 54 55 56 57 58 60 61 64 66 68 70
2 30 33 34 35 36 38 39 41 42 43 44 45 46 47 48 51 56 57 58 61 63 64 65 66 68 70 73
3 30 31 35 36 38 40 41 44 45 46 50 51 53 56 57 58 60 63 64 65 66
4 30 31 33 35 36 38 39 41 42 44 45 46 51 54 56 57 64 65 69 70
5 30 31 32 33 34 35 38 39 41 43 45 46 48 50 51 52 53 54 57 58 60 61 62 63 64 65 70
6 30 31 33 34 35 38 40 41 43 44 45 46 48 49 50 51 52 53 54 56 57 58 60 63 64 65 66 68
7 30 31 33 35 38 40 41 42 45 46 48 51 56 57 60 62 63 64 65 68 70
8 31 33 35 37 38 40 42 44 45 46 51 53 61 62 63 65 66 69
9 30 31 32 33 34 35 36 38 39 41 42 43 44 45 46 49 54 57 58 61 62 63 64 65 66 68 69 73
10 31 33 34 35 39 41 42 44 45 48 51 53 56 59 60 61 63 64 65 69 72
11 31 33 34 36 38 39 40 41 42 46 47 48 50 51 54 57 58 60 61 63 65 69 72
12 35 36 37 38 39 44 45 46 48 49 50 51 53 56 60 62 63 65 66 68 69
13 30 33 34 35 40 44 45 46 53 56 57 58 60 62 63 64 68 69 70 72 73
14 30 32 33 34 39 41 45 47 48 49 52 53 56 58 63 65 66 68
15 33 40 41 43 44 48 52 53 54 62 64 65 66 69
16 30 36 37 42 43 48 51 58 61 64 65 66 68 71 73
17 30 31 32 34 35 41 44 48 53 56 57 60 61 62 64 65 66 69 72 73
18 31 32 34 40 46 48 50 51 56 57 58 64 68 72
19 31 38 39 41 42 45 46 48 50 54 57 59 65 68
20 30 33 39 40 43 48 50 54 60 73
21 34 35 44 48 65 72
22 33 38 41 42 43 44 46 47 48 54 58 64
23 33 42 48 51 57 58 61 62 64
24 30 39 42 50 56 62 66 68
25 31 35 39 45 47 61 67 68
26 37 44 48 57 58 64 66 73
27 32 36 61 62 69
28
29 42
